c 1 Fa_1
c 2 Fa_2
c 3 Fa_3
c 4 NFb_1
c 5 NFb_2
c 6 NFb_3
c 7 NFc_1
c 8 NFc_2
c 9 NFc_3
c 10 NF_1
c 11 NF_2
c 12 NF_3
c 13 NFa_1
c 14 NFa_2
c 15 NFa_3
c 16 Tseitin_Variable_1
p cnf 16 42
3 5 1 -9 0
1 -3 -5 -9 0
1 3 -5 -9 0
1 5 -3 -9 0
1 -3 -5 9 0
1 3 5 9 0
5 1 -3 9 0
3 1 -5 9 0
10 -7 0
-9 10 0
7 9 -10 0
1 -3 -11 0
3 1 -11 0
11 1 -3 0
1 3 11 0
-11 12 0
5 12 0
11 -5 -12 0
6 -12 -13 0
12 -6 -13 0
13 -6 -12 0
6 12 13 0
1 14 0
3 14 0
1 -3 -14 0
4 -14 -15 0
14 -4 -15 0
15 -4 -14 0
4 14 15 0
2 13 15 -16 0
2 -13 -15 -16 0
-2 -13 15 -16 0
-2 13 -15 -16 0
-2 -13 -15 16 0
-2 13 15 16 0
2 13 -15 16 0
2 -13 15 16 0
8 -16 0
10 -16 0
8 10 0
-2 0
1 0